Minimize
	value: tt

Subject to
tt + 1000 s_1_1 > 0.0
tt - t_1_1 - 1000.000000 s_1_1  + 0.000000 s_1_7  > -999.426439
tt + 1000 s_2_1 > 0.0
tt - t_2_1 - 1000.000000 s_2_1  + 0.000000 s_2_7  > -999.077145
tt + 1000 s_1_2 > 0.0
tt - t_1_2 - 1000.000000 s_1_2  + 0.000000 s_1_8  > -999.371156
tt + 1000 s_2_2 > 0.0
tt - t_2_2 - 1000.000000 s_2_2  + 0.000000 s_2_8  > -998.962281
tt + 1000 s_1_3 > 0.0
tt - t_1_3 - 1000.000000 s_1_3  + 0.000000 s_1_8  > -999.081525
tt + 1000 s_2_3 > 0.0
tt - t_2_3 - 1000.000000 s_2_3  + 0.000000 s_2_8  > -998.738316
tt + 1000 s_1_4 > 0.0
tt - t_1_4 - 1000.000000 s_1_4  + 0.000000 s_1_8  + 0.000000 s_1_3  > -999.512875
tt + 1000 s_2_4 > 0.0
tt - t_2_4 - 1000.000000 s_2_4  + 0.000000 s_2_8  + 0.000000 s_2_3  > -999.189208
tt + 1000 s_1_5 > 0.0
tt - t_1_5 - 1000.000000 s_1_5  + 0.000000 s_1_7  + 0.000000 s_1_8  > -999.538900
tt + 1000 s_2_5 > 0.0
tt - t_2_5 - 1000.000000 s_2_5  + 0.000000 s_2_7  + 0.000000 s_2_8  > -999.246458
tt + 1000 s_1_6 > 0.0
tt - t_1_6 - 1000.000000 s_1_6  + 0.000000 s_1_3  + 0.000000 s_1_5  + 0.000000 s_1_1  + 0.000000 s_1_4  + 0.000000 s_1_2  > -999.949100
tt + 1000 s_2_6 > 0.0
tt - t_2_6 - 1000.000000 s_2_6  + 0.000000 s_2_3  + 0.000000 s_2_5  + 0.000000 s_2_1  + 0.000000 s_2_4  + 0.000000 s_2_2  > -999.903900
tt + 1000 s_1_7 > 0.0
tt - t_1_7 - 1000.000000 s_1_7  > -998.896028
tt + 1000 s_2_7 > 0.0
tt - t_2_7 - 1000.000000 s_2_7  > -997.879660
tt + 1000 s_1_8 > 0.0
tt - t_1_8 - 1000.000000 s_1_8  > -999.035300
tt + 1000 s_2_8 > 0.0
tt - t_2_8 - 1000.000000 s_2_8  > -998.609692
s_1_1 + s_2_1 = 1
s_1_2 + s_2_2 = 1
s_1_3 + s_2_3 = 1
s_1_4 + s_2_4 = 1
s_1_5 + s_2_5 = 1
s_1_6 + s_2_6 = 1
s_1_7 + s_2_7 = 1
s_1_8 + s_2_8 = 1
s_1_1 + s_1_2 + 1000 r_1_1_2 >= 2
- s_1_1 - s_1_2 - 1000 r_1_1_2 >= -1001
t_1_1 - t_1_2 - 1000.000000 u_1_1_2 - 0.000000 s_1_2  + 0.000000 s_1_8  + 2000.000000 r_1_1_2 > -999.371156
s_2_1 + s_2_2 + 1000 r_2_1_2 >= 2
- s_2_1 - s_2_2 - 1000 r_2_1_2 >= -1001
t_2_1 - t_2_2 - 1000.000000 u_2_1_2 - 0.000000 s_2_2  + 0.000000 s_2_8  + 2000.000000 r_2_1_2 > -998.962281
s_1_1 + s_1_3 + 1000 r_1_1_3 >= 2
- s_1_1 - s_1_3 - 1000 r_1_1_3 >= -1001
t_1_1 - t_1_3 - 1000.000000 u_1_1_3 - 0.000000 s_1_3  + 0.000000 s_1_8  + 2000.000000 r_1_1_3 > -999.081525
s_2_1 + s_2_3 + 1000 r_2_1_3 >= 2
- s_2_1 - s_2_3 - 1000 r_2_1_3 >= -1001
t_2_1 - t_2_3 - 1000.000000 u_2_1_3 - 0.000000 s_2_3  + 0.000000 s_2_8  + 2000.000000 r_2_1_3 > -998.738316
s_1_1 + s_1_4 + 1000 r_1_1_4 >= 2
- s_1_1 - s_1_4 - 1000 r_1_1_4 >= -1001
t_1_1 - t_1_4 - 1000.000000 u_1_1_4 - 0.000000 s_1_4  + 0.000000 s_1_8  + 0.000000 s_1_3  + 2000.000000 r_1_1_4 > -999.512875
s_2_1 + s_2_4 + 1000 r_2_1_4 >= 2
- s_2_1 - s_2_4 - 1000 r_2_1_4 >= -1001
t_2_1 - t_2_4 - 1000.000000 u_2_1_4 - 0.000000 s_2_4  + 0.000000 s_2_8  + 0.000000 s_2_3  + 2000.000000 r_2_1_4 > -999.189208
s_1_1 + s_1_5 + 1000 r_1_1_5 >= 2
- s_1_1 - s_1_5 - 1000 r_1_1_5 >= -1001
t_1_1 - t_1_5 - 1000.000000 u_1_1_5 - 0.000000 s_1_5  + 0.000000 s_1_7  + 0.000000 s_1_8  + 2000.000000 r_1_1_5 > -999.538900
s_2_1 + s_2_5 + 1000 r_2_1_5 >= 2
- s_2_1 - s_2_5 - 1000 r_2_1_5 >= -1001
t_2_1 - t_2_5 - 1000.000000 u_2_1_5 - 0.000000 s_2_5  + 0.000000 s_2_7  + 0.000000 s_2_8  + 2000.000000 r_2_1_5 > -999.246458
t_1_6 - t_1_1 - 1000.000000 s_1_1  + 0.000000 s_1_7  > -999.426439
t_1_6 - t_2_1 - 1000.000000 s_2_1  + 0.000000 s_2_7  > -999.077145
t_2_6 - t_1_1 - 1000.000000 s_1_1  + 0.000000 s_1_7  > -999.426439
t_2_6 - t_2_1 - 1000.000000 s_2_1  + 0.000000 s_2_7  > -999.077145
t_1_1 - t_1_7 - 1000.000000 s_1_7  > -998.896028
t_1_1 - t_2_7 - 1000.000000 s_2_7  > -997.879660
t_2_1 - t_1_7 - 1000.000000 s_1_7  > -998.896028
t_2_1 - t_2_7 - 1000.000000 s_2_7  > -997.879660
s_1_1 + s_1_8 + 1000 r_1_1_8 >= 2
- s_1_1 - s_1_8 - 1000 r_1_1_8 >= -1001
t_1_1 - t_1_8 - 1000.000000 u_1_1_8 - 0.000000 s_1_8  + 2000.000000 r_1_1_8 > -999.035300
s_2_1 + s_2_8 + 1000 r_2_1_8 >= 2
- s_2_1 - s_2_8 - 1000 r_2_1_8 >= -1001
t_2_1 - t_2_8 - 1000.000000 u_2_1_8 - 0.000000 s_2_8  + 2000.000000 r_2_1_8 > -998.609692
s_1_2 + s_1_1 + 1000 r_1_1_2 >= 2
- s_1_2 - s_1_1 - 1000 r_1_1_2 >= -1001
t_1_2 - t_1_1 + 1000.000000 u_1_1_2 - 0.000000 s_1_1  + 0.000000 s_1_7  + 2000.000000 r_1_1_2 > 0.573561
s_2_2 + s_2_1 + 1000 r_2_1_2 >= 2
- s_2_2 - s_2_1 - 1000 r_2_1_2 >= -1001
t_2_2 - t_2_1 + 1000.000000 u_2_1_2 - 0.000000 s_2_1  + 0.000000 s_2_7  + 2000.000000 r_2_1_2 > 0.922855
s_1_2 + s_1_3 + 1000 r_1_2_3 >= 2
- s_1_2 - s_1_3 - 1000 r_1_2_3 >= -1001
t_1_2 - t_1_3 - 1000.000000 u_1_2_3 - 0.000000 s_1_3  + 0.000000 s_1_8  + 2000.000000 r_1_2_3 > -999.081525
s_2_2 + s_2_3 + 1000 r_2_2_3 >= 2
- s_2_2 - s_2_3 - 1000 r_2_2_3 >= -1001
t_2_2 - t_2_3 - 1000.000000 u_2_2_3 - 0.000000 s_2_3  + 0.000000 s_2_8  + 2000.000000 r_2_2_3 > -998.738316
s_1_2 + s_1_4 + 1000 r_1_2_4 >= 2
- s_1_2 - s_1_4 - 1000 r_1_2_4 >= -1001
t_1_2 - t_1_4 - 1000.000000 u_1_2_4 - 0.000000 s_1_4  + 0.000000 s_1_8  + 0.000000 s_1_3  + 2000.000000 r_1_2_4 > -999.512875
s_2_2 + s_2_4 + 1000 r_2_2_4 >= 2
- s_2_2 - s_2_4 - 1000 r_2_2_4 >= -1001
t_2_2 - t_2_4 - 1000.000000 u_2_2_4 - 0.000000 s_2_4  + 0.000000 s_2_8  + 0.000000 s_2_3  + 2000.000000 r_2_2_4 > -999.189208
s_1_2 + s_1_5 + 1000 r_1_2_5 >= 2
- s_1_2 - s_1_5 - 1000 r_1_2_5 >= -1001
t_1_2 - t_1_5 - 1000.000000 u_1_2_5 - 0.000000 s_1_5  + 0.000000 s_1_7  + 0.000000 s_1_8  + 2000.000000 r_1_2_5 > -999.538900
s_2_2 + s_2_5 + 1000 r_2_2_5 >= 2
- s_2_2 - s_2_5 - 1000 r_2_2_5 >= -1001
t_2_2 - t_2_5 - 1000.000000 u_2_2_5 - 0.000000 s_2_5  + 0.000000 s_2_7  + 0.000000 s_2_8  + 2000.000000 r_2_2_5 > -999.246458
t_1_6 - t_1_2 - 1000.000000 s_1_2  + 0.000000 s_1_8  > -999.371156
t_1_6 - t_2_2 - 1000.000000 s_2_2  + 0.000000 s_2_8  > -998.962281
t_2_6 - t_1_2 - 1000.000000 s_1_2  + 0.000000 s_1_8  > -999.371156
t_2_6 - t_2_2 - 1000.000000 s_2_2  + 0.000000 s_2_8  > -998.962281
s_1_2 + s_1_7 + 1000 r_1_2_7 >= 2
- s_1_2 - s_1_7 - 1000 r_1_2_7 >= -1001
t_1_2 - t_1_7 - 1000.000000 u_1_2_7 - 0.000000 s_1_7  + 2000.000000 r_1_2_7 > -998.896028
s_2_2 + s_2_7 + 1000 r_2_2_7 >= 2
- s_2_2 - s_2_7 - 1000 r_2_2_7 >= -1001
t_2_2 - t_2_7 - 1000.000000 u_2_2_7 - 0.000000 s_2_7  + 2000.000000 r_2_2_7 > -997.879660
t_1_2 - t_1_8 - 1000.000000 s_1_8  > -999.035300
t_1_2 - t_2_8 - 1000.000000 s_2_8  > -998.609692
t_2_2 - t_1_8 - 1000.000000 s_1_8  > -999.035300
t_2_2 - t_2_8 - 1000.000000 s_2_8  > -998.609692
s_1_3 + s_1_1 + 1000 r_1_1_3 >= 2
- s_1_3 - s_1_1 - 1000 r_1_1_3 >= -1001
t_1_3 - t_1_1 + 1000.000000 u_1_1_3 - 0.000000 s_1_1  + 0.000000 s_1_7  + 2000.000000 r_1_1_3 > 0.573561
s_2_3 + s_2_1 + 1000 r_2_1_3 >= 2
- s_2_3 - s_2_1 - 1000 r_2_1_3 >= -1001
t_2_3 - t_2_1 + 1000.000000 u_2_1_3 - 0.000000 s_2_1  + 0.000000 s_2_7  + 2000.000000 r_2_1_3 > 0.922855
s_1_3 + s_1_2 + 1000 r_1_2_3 >= 2
- s_1_3 - s_1_2 - 1000 r_1_2_3 >= -1001
t_1_3 - t_1_2 + 1000.000000 u_1_2_3 - 0.000000 s_1_2  + 0.000000 s_1_8  + 2000.000000 r_1_2_3 > 0.628844
s_2_3 + s_2_2 + 1000 r_2_2_3 >= 2
- s_2_3 - s_2_2 - 1000 r_2_2_3 >= -1001
t_2_3 - t_2_2 + 1000.000000 u_2_2_3 - 0.000000 s_2_2  + 0.000000 s_2_8  + 2000.000000 r_2_2_3 > 1.037719
t_1_4 - t_1_3 - 1000.000000 s_1_3  + 0.000000 s_1_8  > -999.081525
t_1_4 - t_2_3 - 1000.000000 s_2_3  + 0.000000 s_2_8  > -998.738316
t_2_4 - t_1_3 - 1000.000000 s_1_3  + 0.000000 s_1_8  > -999.081525
t_2_4 - t_2_3 - 1000.000000 s_2_3  + 0.000000 s_2_8  > -998.738316
s_1_3 + s_1_5 + 1000 r_1_3_5 >= 2
- s_1_3 - s_1_5 - 1000 r_1_3_5 >= -1001
t_1_3 - t_1_5 - 1000.000000 u_1_3_5 - 0.000000 s_1_5  + 0.000000 s_1_7  + 0.000000 s_1_8  + 2000.000000 r_1_3_5 > -999.538900
s_2_3 + s_2_5 + 1000 r_2_3_5 >= 2
- s_2_3 - s_2_5 - 1000 r_2_3_5 >= -1001
t_2_3 - t_2_5 - 1000.000000 u_2_3_5 - 0.000000 s_2_5  + 0.000000 s_2_7  + 0.000000 s_2_8  + 2000.000000 r_2_3_5 > -999.246458
t_1_6 - t_1_3 - 1000.000000 s_1_3  + 0.000000 s_1_8  > -999.081525
t_1_6 - t_2_3 - 1000.000000 s_2_3  + 0.000000 s_2_8  > -998.738316
t_2_6 - t_1_3 - 1000.000000 s_1_3  + 0.000000 s_1_8  > -999.081525
t_2_6 - t_2_3 - 1000.000000 s_2_3  + 0.000000 s_2_8  > -998.738316
s_1_3 + s_1_7 + 1000 r_1_3_7 >= 2
- s_1_3 - s_1_7 - 1000 r_1_3_7 >= -1001
t_1_3 - t_1_7 - 1000.000000 u_1_3_7 - 0.000000 s_1_7  + 2000.000000 r_1_3_7 > -998.896028
s_2_3 + s_2_7 + 1000 r_2_3_7 >= 2
- s_2_3 - s_2_7 - 1000 r_2_3_7 >= -1001
t_2_3 - t_2_7 - 1000.000000 u_2_3_7 - 0.000000 s_2_7  + 2000.000000 r_2_3_7 > -997.879660
t_1_3 - t_1_8 - 1000.000000 s_1_8  > -999.035300
t_1_3 - t_2_8 - 1000.000000 s_2_8  > -998.609692
t_2_3 - t_1_8 - 1000.000000 s_1_8  > -999.035300
t_2_3 - t_2_8 - 1000.000000 s_2_8  > -998.609692
s_1_4 + s_1_1 + 1000 r_1_1_4 >= 2
- s_1_4 - s_1_1 - 1000 r_1_1_4 >= -1001
t_1_4 - t_1_1 + 1000.000000 u_1_1_4 - 0.000000 s_1_1  + 0.000000 s_1_7  + 2000.000000 r_1_1_4 > 0.573561
s_2_4 + s_2_1 + 1000 r_2_1_4 >= 2
- s_2_4 - s_2_1 - 1000 r_2_1_4 >= -1001
t_2_4 - t_2_1 + 1000.000000 u_2_1_4 - 0.000000 s_2_1  + 0.000000 s_2_7  + 2000.000000 r_2_1_4 > 0.922855
s_1_4 + s_1_2 + 1000 r_1_2_4 >= 2
- s_1_4 - s_1_2 - 1000 r_1_2_4 >= -1001
t_1_4 - t_1_2 + 1000.000000 u_1_2_4 - 0.000000 s_1_2  + 0.000000 s_1_8  + 2000.000000 r_1_2_4 > 0.628844
s_2_4 + s_2_2 + 1000 r_2_2_4 >= 2
- s_2_4 - s_2_2 - 1000 r_2_2_4 >= -1001
t_2_4 - t_2_2 + 1000.000000 u_2_2_4 - 0.000000 s_2_2  + 0.000000 s_2_8  + 2000.000000 r_2_2_4 > 1.037719
s_1_4 + s_1_5 + 1000 r_1_4_5 >= 2
- s_1_4 - s_1_5 - 1000 r_1_4_5 >= -1001
t_1_4 - t_1_5 - 1000.000000 u_1_4_5 - 0.000000 s_1_5  + 0.000000 s_1_7  + 0.000000 s_1_8  + 2000.000000 r_1_4_5 > -999.538900
s_2_4 + s_2_5 + 1000 r_2_4_5 >= 2
- s_2_4 - s_2_5 - 1000 r_2_4_5 >= -1001
t_2_4 - t_2_5 - 1000.000000 u_2_4_5 - 0.000000 s_2_5  + 0.000000 s_2_7  + 0.000000 s_2_8  + 2000.000000 r_2_4_5 > -999.246458
t_1_6 - t_1_4 - 1000.000000 s_1_4  + 0.000000 s_1_8  + 0.000000 s_1_3  > -999.512875
t_1_6 - t_2_4 - 1000.000000 s_2_4  + 0.000000 s_2_8  + 0.000000 s_2_3  > -999.189208
t_2_6 - t_1_4 - 1000.000000 s_1_4  + 0.000000 s_1_8  + 0.000000 s_1_3  > -999.512875
t_2_6 - t_2_4 - 1000.000000 s_2_4  + 0.000000 s_2_8  + 0.000000 s_2_3  > -999.189208
s_1_4 + s_1_7 + 1000 r_1_4_7 >= 2
- s_1_4 - s_1_7 - 1000 r_1_4_7 >= -1001
t_1_4 - t_1_7 - 1000.000000 u_1_4_7 - 0.000000 s_1_7  + 2000.000000 r_1_4_7 > -998.896028
s_2_4 + s_2_7 + 1000 r_2_4_7 >= 2
- s_2_4 - s_2_7 - 1000 r_2_4_7 >= -1001
t_2_4 - t_2_7 - 1000.000000 u_2_4_7 - 0.000000 s_2_7  + 2000.000000 r_2_4_7 > -997.879660
t_1_4 - t_1_8 - 1000.000000 s_1_8  > -999.035300
t_1_4 - t_2_8 - 1000.000000 s_2_8  > -998.609692
t_2_4 - t_1_8 - 1000.000000 s_1_8  > -999.035300
t_2_4 - t_2_8 - 1000.000000 s_2_8  > -998.609692
s_1_5 + s_1_1 + 1000 r_1_1_5 >= 2
- s_1_5 - s_1_1 - 1000 r_1_1_5 >= -1001
t_1_5 - t_1_1 + 1000.000000 u_1_1_5 - 0.000000 s_1_1  + 0.000000 s_1_7  + 2000.000000 r_1_1_5 > 0.573561
s_2_5 + s_2_1 + 1000 r_2_1_5 >= 2
- s_2_5 - s_2_1 - 1000 r_2_1_5 >= -1001
t_2_5 - t_2_1 + 1000.000000 u_2_1_5 - 0.000000 s_2_1  + 0.000000 s_2_7  + 2000.000000 r_2_1_5 > 0.922855
s_1_5 + s_1_2 + 1000 r_1_2_5 >= 2
- s_1_5 - s_1_2 - 1000 r_1_2_5 >= -1001
t_1_5 - t_1_2 + 1000.000000 u_1_2_5 - 0.000000 s_1_2  + 0.000000 s_1_8  + 2000.000000 r_1_2_5 > 0.628844
s_2_5 + s_2_2 + 1000 r_2_2_5 >= 2
- s_2_5 - s_2_2 - 1000 r_2_2_5 >= -1001
t_2_5 - t_2_2 + 1000.000000 u_2_2_5 - 0.000000 s_2_2  + 0.000000 s_2_8  + 2000.000000 r_2_2_5 > 1.037719
s_1_5 + s_1_3 + 1000 r_1_3_5 >= 2
- s_1_5 - s_1_3 - 1000 r_1_3_5 >= -1001
t_1_5 - t_1_3 + 1000.000000 u_1_3_5 - 0.000000 s_1_3  + 0.000000 s_1_8  + 2000.000000 r_1_3_5 > 0.918475
s_2_5 + s_2_3 + 1000 r_2_3_5 >= 2
- s_2_5 - s_2_3 - 1000 r_2_3_5 >= -1001
t_2_5 - t_2_3 + 1000.000000 u_2_3_5 - 0.000000 s_2_3  + 0.000000 s_2_8  + 2000.000000 r_2_3_5 > 1.261684
s_1_5 + s_1_4 + 1000 r_1_4_5 >= 2
- s_1_5 - s_1_4 - 1000 r_1_4_5 >= -1001
t_1_5 - t_1_4 + 1000.000000 u_1_4_5 - 0.000000 s_1_4  + 0.000000 s_1_8  + 0.000000 s_1_3  + 2000.000000 r_1_4_5 > 0.487125
s_2_5 + s_2_4 + 1000 r_2_4_5 >= 2
- s_2_5 - s_2_4 - 1000 r_2_4_5 >= -1001
t_2_5 - t_2_4 + 1000.000000 u_2_4_5 - 0.000000 s_2_4  + 0.000000 s_2_8  + 0.000000 s_2_3  + 2000.000000 r_2_4_5 > 0.810792
t_1_6 - t_1_5 - 1000.000000 s_1_5  + 0.000000 s_1_7  + 0.000000 s_1_8  > -999.538900
t_1_6 - t_2_5 - 1000.000000 s_2_5  + 0.000000 s_2_7  + 0.000000 s_2_8  > -999.246458
t_2_6 - t_1_5 - 1000.000000 s_1_5  + 0.000000 s_1_7  + 0.000000 s_1_8  > -999.538900
t_2_6 - t_2_5 - 1000.000000 s_2_5  + 0.000000 s_2_7  + 0.000000 s_2_8  > -999.246458
t_1_5 - t_1_7 - 1000.000000 s_1_7  > -998.896028
t_1_5 - t_2_7 - 1000.000000 s_2_7  > -997.879660
t_2_5 - t_1_7 - 1000.000000 s_1_7  > -998.896028
t_2_5 - t_2_7 - 1000.000000 s_2_7  > -997.879660
t_1_5 - t_1_8 - 1000.000000 s_1_8  > -999.035300
t_1_5 - t_2_8 - 1000.000000 s_2_8  > -998.609692
t_2_5 - t_1_8 - 1000.000000 s_1_8  > -999.035300
t_2_5 - t_2_8 - 1000.000000 s_2_8  > -998.609692
s_1_7 + s_1_2 + 1000 r_1_2_7 >= 2
- s_1_7 - s_1_2 - 1000 r_1_2_7 >= -1001
t_1_7 - t_1_2 + 1000.000000 u_1_2_7 - 0.000000 s_1_2  + 0.000000 s_1_8  + 2000.000000 r_1_2_7 > 0.628844
s_2_7 + s_2_2 + 1000 r_2_2_7 >= 2
- s_2_7 - s_2_2 - 1000 r_2_2_7 >= -1001
t_2_7 - t_2_2 + 1000.000000 u_2_2_7 - 0.000000 s_2_2  + 0.000000 s_2_8  + 2000.000000 r_2_2_7 > 1.037719
s_1_7 + s_1_3 + 1000 r_1_3_7 >= 2
- s_1_7 - s_1_3 - 1000 r_1_3_7 >= -1001
t_1_7 - t_1_3 + 1000.000000 u_1_3_7 - 0.000000 s_1_3  + 0.000000 s_1_8  + 2000.000000 r_1_3_7 > 0.918475
s_2_7 + s_2_3 + 1000 r_2_3_7 >= 2
- s_2_7 - s_2_3 - 1000 r_2_3_7 >= -1001
t_2_7 - t_2_3 + 1000.000000 u_2_3_7 - 0.000000 s_2_3  + 0.000000 s_2_8  + 2000.000000 r_2_3_7 > 1.261684
s_1_7 + s_1_4 + 1000 r_1_4_7 >= 2
- s_1_7 - s_1_4 - 1000 r_1_4_7 >= -1001
t_1_7 - t_1_4 + 1000.000000 u_1_4_7 - 0.000000 s_1_4  + 0.000000 s_1_8  + 0.000000 s_1_3  + 2000.000000 r_1_4_7 > 0.487125
s_2_7 + s_2_4 + 1000 r_2_4_7 >= 2
- s_2_7 - s_2_4 - 1000 r_2_4_7 >= -1001
t_2_7 - t_2_4 + 1000.000000 u_2_4_7 - 0.000000 s_2_4  + 0.000000 s_2_8  + 0.000000 s_2_3  + 2000.000000 r_2_4_7 > 0.810792
s_1_7 + s_1_8 + 1000 r_1_7_8 >= 2
- s_1_7 - s_1_8 - 1000 r_1_7_8 >= -1001
t_1_7 - t_1_8 - 1000.000000 u_1_7_8 - 0.000000 s_1_8  + 2000.000000 r_1_7_8 > -999.035300
s_2_7 + s_2_8 + 1000 r_2_7_8 >= 2
- s_2_7 - s_2_8 - 1000 r_2_7_8 >= -1001
t_2_7 - t_2_8 - 1000.000000 u_2_7_8 - 0.000000 s_2_8  + 2000.000000 r_2_7_8 > -998.609692
s_1_8 + s_1_1 + 1000 r_1_1_8 >= 2
- s_1_8 - s_1_1 - 1000 r_1_1_8 >= -1001
t_1_8 - t_1_1 + 1000.000000 u_1_1_8 - 0.000000 s_1_1  + 0.000000 s_1_7  + 2000.000000 r_1_1_8 > 0.573561
s_2_8 + s_2_1 + 1000 r_2_1_8 >= 2
- s_2_8 - s_2_1 - 1000 r_2_1_8 >= -1001
t_2_8 - t_2_1 + 1000.000000 u_2_1_8 - 0.000000 s_2_1  + 0.000000 s_2_7  + 2000.000000 r_2_1_8 > 0.922855
s_1_8 + s_1_7 + 1000 r_1_7_8 >= 2
- s_1_8 - s_1_7 - 1000 r_1_7_8 >= -1001
t_1_8 - t_1_7 + 1000.000000 u_1_7_8 - 0.000000 s_1_7  + 2000.000000 r_1_7_8 > 1.103972
s_2_8 + s_2_7 + 1000 r_2_7_8 >= 2
- s_2_8 - s_2_7 - 1000 r_2_7_8 >= -1001
t_2_8 - t_2_7 + 1000.000000 u_2_7_8 - 0.000000 s_2_7  + 2000.000000 r_2_7_8 > 2.120340
Binary
s_1_1
s_2_1
s_1_2
s_2_2
s_1_3
s_2_3
s_1_4
s_2_4
s_1_5
s_2_5
s_1_6
s_2_6
s_1_7
s_2_7
s_1_8
s_2_8
u_1_1_2
r_1_1_2
u_2_1_2
r_2_1_2
u_1_1_3
r_1_1_3
u_2_1_3
r_2_1_3
u_1_1_4
r_1_1_4
u_2_1_4
r_2_1_4
u_1_1_5
r_1_1_5
u_2_1_5
r_2_1_5
u_1_1_8
r_1_1_8
u_2_1_8
r_2_1_8
u_1_2_3
r_1_2_3
u_2_2_3
r_2_2_3
u_1_2_4
r_1_2_4
u_2_2_4
r_2_2_4
u_1_2_5
r_1_2_5
u_2_2_5
r_2_2_5
u_1_2_7
r_1_2_7
u_2_2_7
r_2_2_7
u_1_3_5
r_1_3_5
u_2_3_5
r_2_3_5
u_1_3_7
r_1_3_7
u_2_3_7
r_2_3_7
u_1_4_5
r_1_4_5
u_2_4_5
r_2_4_5
u_1_4_7
r_1_4_7
u_2_4_7
r_2_4_7
u_1_7_8
r_1_7_8
u_2_7_8
r_2_7_8

End
